(set-option :produce-models true)
(set-logic QF_UF)
(declare-fun p31() Bool)
(declare-fun p19() Bool)
(declare-fun p4() Bool)
(declare-fun p27() Bool)
(declare-fun p64() Bool)
(declare-fun p30() Bool)
(declare-fun p52() Bool)
(declare-fun p28() Bool)
(declare-fun p73() Bool)
(declare-fun p11() Bool)
(declare-fun p58() Bool)
(declare-fun p54() Bool)
(declare-fun p43() Bool)
(declare-fun p40() Bool)
(declare-fun p61() Bool)
(declare-fun p67() Bool)
(declare-fun p5() Bool)
(declare-fun p50() Bool)
(declare-fun p24() Bool)
(declare-fun p45() Bool)
(declare-fun p57() Bool)
(declare-fun p56() Bool)
(declare-fun p60() Bool)
(declare-fun p51() Bool)
(declare-fun p26() Bool)
(declare-fun p74() Bool)
(declare-fun p36() Bool)
(declare-fun p35() Bool)
(declare-fun p70() Bool)
(declare-fun p37() Bool)
(declare-fun p23() Bool)
(declare-fun p78() Bool)
(declare-fun p15() Bool)
(declare-fun p63() Bool)
(declare-fun p16() Bool)
(declare-fun p42() Bool)
(declare-fun p25() Bool)
(declare-fun p39() Bool)
(declare-fun p68() Bool)
(declare-fun p77() Bool)
(declare-fun p65() Bool)
(declare-fun p55() Bool)
(declare-fun p12() Bool)
(declare-fun p62() Bool)
(declare-fun p41() Bool)
(declare-fun p17() Bool)
(declare-fun p38() Bool)
(declare-fun p44() Bool)
(declare-fun p8() Bool)
(declare-fun p47() Bool)
(declare-fun p33() Bool)
(declare-fun p20() Bool)
(declare-fun p32() Bool)
(declare-fun p7() Bool)
(declare-fun p14() Bool)
(declare-fun p46() Bool)
(declare-fun p66() Bool)
(declare-fun p34() Bool)
(declare-fun p3() Bool)
(declare-fun p21() Bool)
(declare-fun p72() Bool)
(declare-fun p10() Bool)
(declare-fun p75() Bool)
(declare-fun p59() Bool)
(declare-fun p49() Bool)
(declare-fun p53() Bool)
(declare-fun p76() Bool)
(declare-fun p69() Bool)
(declare-fun p1() Bool)
(declare-fun p6() Bool)
(declare-fun p22() Bool)
(declare-fun p79() Bool)
(declare-fun p0() Bool)
(declare-fun p48() Bool)
(declare-fun p29() Bool)
(declare-fun p18() Bool)
(declare-fun p71() Bool)
(declare-fun p9() Bool)
(declare-fun p13() Bool)
(declare-fun p2() Bool)
(assert
(and (or p31 (not p19) (not p4)) (or (not p27) (not p64) (not p30)) (or p52 (not p28) (not p73)) (or (not p11) (not p58) (not p54)) (or p43 p40 p61) (or (not p67) (not p5) (not p50)) (or (not p24) p45 p5) (or p57 p56 p60) (or (not p51) p26 (not p74)) (or p36 (not p35) p70) (or (not p36) (not p19) (not p37)) (or p23 p52 (not p40)) (or p78 (not p19) p15) (or p5 p51 p63) (or (not p16) (not p42) p37) (or p56 p31 p25) (or (not p39) p68 p77) (or p65 p55 (not p57)) (or p54 (not p12) (not p62)) (or p50 (not p41) p17) (or (not p38) p73 p11) (or p58 (not p44) p8) (or (not p57) p4 (not p47)) (or p44 p33 p20) (or (not p32) p31 p44) (or p23 (not p25) (not p37)) (or p78 p7 (not p14)) (or p24 p14 (not p24)) (or p4 p42 p64) (or (not p46) p39 (not p44)) (or p78 (not p24) p66) (or p39 (not p34) (not p15)) (or p44 (not p31) p64) (or p50 (not p55) p26) (or (not p45) p31 p39) (or p3 p39 (not p57)) (or (not p21) (not p66) p35) (or (not p72) (not p10) (not p60)) (or p34 p46 p36) (or p46 p57 p14) (or p52 (not p21) p31) (or (not p61) (not p35) p75) (or p59 (not p57) (not p36)) (or (not p50) p59 (not p49)) (or (not p14) p54 (not p53)) (or p7 p64 (not p76)) (or (not p19) p40 (not p39)) (or p58 (not p30) (not p72)) (or (not p43) (not p59) p68) (or (not p20) (not p15) p60) (or p43 p19 p44) (or (not p37) (not p52) p62) (or p14 (not p37) (not p33)) (or p56 (not p53) (not p65)) (or p58 (not p66) (not p69)) (or (not p1) (not p44) (not p51)) (or (not p45) (not p6) (not p57)) (or p56 (not p49) p52) (or p43 p22 (not p79)) (or p45 p46 (not p50)) (or (not p0) (not p24) (not p12)) (or (not p76) (not p7) (not p51)) (or (not p74) (not p64) (not p52)) (or p64 p30 p26) (or p65 p35 (not p15)) (or p10 p48 (not p75)) (or p17 p21 (not p7)) (or (not p14) p22 p0) (or p40 (not p35) p20) (or (not p38) (not p5) (not p27)) (or p29 p19 (not p36)) (or (not p35) (not p53) p40) (or (not p56) (not p43) p65) (or p77 p67 p12) (or (not p16) (not p60) (not p57)) (or p32 (not p12) (not p12)) (or (not p66) p50 (not p18)) (or p25 p50 p20) (or p27 p5 (not p44)) (or (not p25) (not p47) p61) (or p76 p32 p5) (or p23 p71 p18) (or p50 p18 p18) (or p40 p48 p30) (or p55 (not p61) p73) (or (not p12) p34 p77) (or (not p19) (not p57) p33) (or (not p52) (not p79) (not p23)) (or (not p51) (not p79) p11) (or p15 (not p9) (not p61)) (or (not p28) p56 (not p75)) (or p50 (not p54) (not p14)) (or p7 (not p5) p5) (or p72 p42 (not p35)) (or p0 (not p13) (not p47)) (or (not p69) p10 (not p24)) (or (not p42) p28 p60) (or (not p47) (not p54) (not p29)) (or (not p62) p24 p54) (or p10 (not p37) p7) (or (not p0) (not p21) (not p30)) (or p71 p34 (not p10)) (or (not p54) p72 p15) (or p19 p6 (not p38)) (or (not p75) p41 p44) (or p33 p33 (not p5)) (or p64 (not p40) (not p79)) (or (not p12) p66 (not p71)) (or (not p55) (not p2) p3) (or (not p22) p5 p20) (or p19 p44 (not p48)) (or (not p35) (not p12) (not p52)) (or p40 p64 p10) (or p36 (not p28) p40) (or (not p7) (not p53) p60) (or (not p74) p40 (not p43)) (or p11 (not p77) p15) (or (not p18) p46 (not p55)) (or (not p63) p38 (not p47)) (or (not p0) (not p22) p12) (or (not p29) p5 (not p44)) (or p8 (not p11) p29) (or (not p62) p9 (not p14)) (or p20 p50 p70) (or (not p53) p28 (not p24)) (or p13 p59 p10) (or p13 (not p26) p16) (or p51 (not p65) (not p40)) (or (not p51) p37 p68) (or (not p76) (not p71) p29) (or (not p62) (not p70) p63) (or p48 (not p62) (not p58)) (or (not p43) (not p21) (not p75)) (or p41 (not p28) (not p54)) (or (not p40) p72 (not p34)) (or p26 (not p42) p18) (or (not p73) p11 (not p14)) (or (not p69) p71 (not p66)) (or p23 (not p73) (not p2)) (or (not p51) (not p59) (not p28)) (or (not p56) (not p52) (not p50)) (or (not p74) (not p20) (not p72)) (or (not p39) p58 (not p15)) (or (not p3) p51 p26) (or (not p25) (not p54) (not p47)) (or p57 (not p40) (not p57)) (or p53 p41 (not p23)) (or p36 p73 (not p67)) (or p54 p64 (not p64)) (or (not p23) p69 p76) (or (not p10) p36 p58) (or p32 (not p62) p31) (or p74 (not p36) p72) (or (not p30) (not p53) (not p31)) (or p13 (not p38) p21) (or p79 (not p78) p40) (or (not p54) (not p75) p64) (or (not p8) p23 p50) (or (not p76) (not p20) (not p64)) (or (not p20) (not p47) p3) (or (not p56) p75 p66) (or p14 (not p14) p38) (or (not p62) p42 p30) (or p14 (not p14) (not p21)) (or p51 (not p31) (not p9)) (or (not p55) (not p32) (not p43)) (or (not p63) p64 p41) (or (not p3) p45 p11) (or (not p78) (not p43) p49) (or p53 (not p35) (not p16)) (or p65 p76 p63) (or p16 p1 (not p73)) (or p19 (not p67) p61) (or p2 p27 p12) (or p52 (not p59) (not p21)) (or (not p37) p16 p43) (or (not p77) (not p62) p66) (or p32 p8 p65) (or p58 p25 p30) (or p37 p31 p33) (or (not p5) p36 p6) (or p22 (not p68) (not p8)) (or (not p65) (not p17) p48) (or (not p2) (not p2) p76) (or p19 p57 p77) (or p78 (not p2) (not p15)) (or p5 p57 (not p75)) (or p46 (not p38) p46) (or (not p37) (not p76) p57) (or p35 (not p57) p72) (or (not p73) (not p6) (not p30)) (or p6 (not p65) (not p40)) (or (not p38) p41 p67) (or p49 (not p54) p68) (or (not p58) (not p49) (not p16)) (or p0 (not p65) (not p52)) (or (not p20) (not p15) (not p67)) (or (not p62) p73 (not p37)) (or (not p56) p60 (not p32)) (or p44 (not p58) (not p43)) (or (not p38) (not p55) p65) (or (not p44) p64 p10) (or p10 p12 p49) (or (not p48) (not p49) p8) (or (not p17) (not p42) (not p31)) (or p57 (not p23) (not p59)) (or (not p37) (not p75) p62) (or (not p5) p45 p18) (or (not p47) p21 (not p61)) (or (not p37) (not p8) p28) (or (not p33) (not p0) p77) (or (not p23) (not p38) p64) (or (not p36) (not p67) (not p31)) (or p75 (not p55) p23) (or (not p63) p39 (not p11)) (or p1 (not p78) p46) (or (not p69) (not p79) (not p69)) (or (not p20) (not p77) p10) (or p18 p64 p12) (or (not p30) p21 (not p70)) (or p62 (not p77) p63) (or (not p76) p30 p8) (or p17 (not p62) (not p37)) (or (not p3) (not p17) (not p1)) (or p55 (not p60) (not p67)) (or p49 p61 (not p4)) (or p30 p21 p16) (or p33 (not p35) p52) (or (not p75) (not p65) (not p54)) (or (not p8) (not p36) (not p48)) (or p63 (not p71) (not p3)) (or p48 (not p12) p46) (or p14 (not p43) p60) (or p55 (not p9) p44) (or p30 (not p36) (not p5)) (or (not p47) p22 p23) (or p17 (not p22) (not p20)) (or p75 p4 p2) (or p55 p53 p6) (or (not p79) (not p72) (not p76)) (or p59 p71 (not p28)) (or p6 p5 (not p39)) (or (not p21) (not p76) (not p17)) (or p6 p58 (not p78)) (or p47 (not p59) p22) (or (not p2) (not p9) p68) (or p49 (not p34) p8) (or (not p41) (not p47) p50) (or p77 p67 (not p60)) (or (not p43) (not p36) (not p11)) (or (not p32) (not p38) p37) (or (not p58) (not p8) p74) (or (not p15) p56 p14) (or (not p31) (not p65) (not p13)) (or p47 p53 (not p49)) (or p73 (not p61) (not p58)) (or (not p57) p47 (not p62)) (or p73 (not p30) (not p0)) (or (not p6) p52 (not p59)) (or (not p14) p47 (not p79)) (or (not p20) (not p17) (not p12)) (or p67 (not p44) p7) (or (not p14) p46 (not p62)) (or (not p59) (not p34) p1) (or p64 p2 (not p28)) (or p66 p60 (not p50)) (or (not p25) p50 p54) (or p24 (not p62) (not p48)) (or p45 p3 p73) (or (not p68) (not p45) (not p13)) (or p53 (not p53) p56) (or (not p47) p28 (not p68)) (or p62 (not p78) p29) (or p29 (not p41) (not p45)) (or (not p67) (not p9) (not p70)) (or (not p15) (not p22) p70) (or p49 (not p6) (not p70)) (or p72 (not p22) (not p13)) (or (not p18) p48 p68) (or (not p70) (not p64) p67) (or p54 p48 p32) (or p49 p2 p46) (or (not p75) (not p23) p49) (or p47 p75 p40) (or (not p66) p26 p66) (or p22 p79 p5) (or (not p64) (not p74) p45) (or p50 p1 (not p32)) (or (not p39) p62 (not p15)) (or (not p6) p37 p55) (or p62 (not p24) (not p60)) (or p66 (not p66) (not p66)) (or p75 (not p11) (not p66)) (or p43 p14 (not p23)) (or (not p4) p13 (not p12)) (or p57 (not p53) p63) (or p10 p56 p61) (or p9 p4 p41) (or p55 p1 p17) (or p39 (not p35) p65) (or p18 p14 p24) (or p49 (not p30) p56) (or (not p11) p41 (not p50)) (or p33 (not p38) (not p71)) (or (not p34) (not p56) (not p74)) (or (not p71) (not p33) p74) (or (not p8) (not p49) (not p70)) (or p78 p7 p68) (or p23 p33 p62) (or p24 (not p75) p12) (or p62 (not p10) p25) (or (not p20) p29 p78) (or (not p60) p67 p59) (or (not p16) (not p34) (not p79)) (or (not p46) (not p63) p45) (or p8 p26 (not p75)) (or (not p51) (not p79) p40) (or p63 p19 p58) (or p15 p55 p55) (or p44 p7 p63) (or (not p77) p22 (not p34)) (or p68 (not p78) (not p66)) (or p2 p79 p63) (or p42 p8 p41) (or p59 (not p11) p21) (or (not p58) p38 p12) (or p74 p31 (not p59)) (or (not p38) p51 p21) (or p39 p58 (not p77)) (or (not p8) p77 (not p76)) (or (not p51) p62 p49) (or p9 p50 p69) (or p43 p65 p79) (or p61 p5 p14) (or p38 p59 p14) (or (not p65) p65 p64) (or p53 (not p49) p79))
)
(check-sat)
(get-model)
